32058
1 0 1 0 1 1 1 0 1 0 1 0 1 1 1 0 0 1 1 1 1 1 0 1 1 1 1 1 1 1 
18 19 21 27 2 12 21 27 27 28 4 28 13 13 28 18 13 20 27 0 18 24 5 24 10 18 27 19 29 2 19 19 4 21 27 12 20 8 24 21 18 8 6 26 8 19 13 21 19 14 24 24 24 21 8 6 25 8 18 25 29 0 18 8 13 12 5 14 28 25 18 12 19 20 23 23 20 23 8 24 10 0 26 25 29 13 6 5 27 25 28 6 25 25 2 13 27 6 0 28 17 21 12 18 4 0 4 24 27 13 19 4 27 12 12 8 28 25 17 8 14 25 17 19 26 21 2 12 26 17 28 24 25 20 23 8 13 13 28 10 12 27 28 25 25 5 24 21 27 25 24 17 23 0 8 28 2 21 13 13 13 27 10 21 5 27 5 4 13 21 5 20 19 14 26 2 0 10 29 10 5 21 24 6 12 8 28 23 0 21 2 21 6 4 25 12 25 21 10 19 
